     Program PWSCF v.7.2 starts on 31Jul2023 at  4:20:17

     Waiting for input...
     Reading input from standard input
Warning: card &CELL ignored
Warning: card   CELL_DOFREE   = 'IBRAV' ignored
Warning: card / ignored

     Current dimensions of program PWSCF are:
     Max number of different atomic species (ntypx) = 10
     Max number of k-points (npk) =  40000
     Max angular momentum in pseudopotentials (lmaxx) =  4
     file P.rel-pbesol-nl-kjpaw_psl.1.0.0.UPF: wavefunction(s)  3S renormalized
     file Ta.rel-pbesol-spfn-kjpaw_psl.1.0.0.UPF: wavefunction(s)  5S 5P 5P 5D 4F 4F renormalized
     Message from routine setup:
     using ibrav=0 with symmetry is DISCOURAGED, use correct ibrav instead

     R & G space division:  proc/nbgrp/npool/nimage =      16
     Subspace diagonalization in iterative solution of the eigenvalue problem:
     a serial algorithm will be used

     Using Slab Decomposition

     bravais-lattice index     =            0
     lattice parameter (alat)  =      11.6627  a.u.
     unit-cell volume          =     414.7770 (a.u.)^3
     number of atoms/cell      =            4
     number of atomic types    =            2
     number of electrons       =        64.00
     number of Kohn-Sham states=           76
     kinetic-energy cutoff     =      60.0000  Ry
     charge density cutoff     =     600.0000  Ry
     scf convergence threshold =      1.0E-07
     mixing beta               =       0.7000
     number of iterations used =            8  plain     mixing
     Exchange-correlation= SLA  PW   PSX  PSC
                           (   1   4  10   8   0   0   0)
     Non magnetic calculation with spin-orbit

     celldm(1)=  11.662672  celldm(2)=   0.000000  celldm(3)=   0.000000
     celldm(4)=   0.000000  celldm(5)=   0.000000  celldm(6)=   0.000000

     crystal axes: (cart. coord. in units of alat)
               a(1) = (   0.987863  -0.000504  -0.000000 )
               a(2) = (   0.698148   0.698902  -0.000000 )
               a(3) = (  -0.843006  -0.349199   0.378518 )

     reciprocal axes: (cart. coord. in units 2 pi/alat)
               b(1) = (  1.011770 -1.010679  1.320942 )
               b(2) = (  0.000730  1.430087  1.320942 )
               b(3) = (  0.000000  0.000000  2.641885 )

     PseudoPot. # 1 for P  read from file:
     ../00_pseudos/P.rel-pbesol-nl-kjpaw_psl.1.0.0.UPF
     MD5 check sum: 0c8f2b216c36cccf289ea652844ab0a6
     Pseudo is Projector augmented-wave + core cor, Zval =  5.0
     Generated using &quot;atomic&quot; code by A. Dal Corso  v.6.3
     Shape of augmentation charge: PSQ
     Using radial grid of 1147 points,  6 beta functions with:
                l(1) =   0
                l(2) =   0
                l(3) =   1
                l(4) =   1
                l(5) =   1
                l(6) =   1
     Q(r) pseudized with 0 coefficients

     PseudoPot. # 2 for Ta read from file:
     ../00_pseudos/Ta.rel-pbesol-spfn-kjpaw_psl.1.0.0.UPF
     MD5 check sum: f63610af1deacd73d20bcf4851593e09
     Pseudo is Projector augmented-wave + core cor, Zval = 27.0
     Generated using &quot;atomic&quot; code by A. Dal Corso  v.6.3
     Shape of augmentation charge: PSQ
     Using radial grid of 1273 points, 14 beta functions with:
                l(1) =   0
                l(2) =   0
                l(3) =   1
                l(4) =   1
                l(5) =   1
                l(6) =   1
                l(7) =   2
                l(8) =   2
                l(9) =   2
               l(10) =   2
               l(11) =   3
               l(12) =   3
               l(13) =   3
               l(14) =   3
     Q(r) pseudized with 0 coefficients

     atomic species   valence    mass     pseudopotential
        P              5.00    30.97300     P ( 1.00)
        Ta            27.00   180.94700     Ta( 1.00)

      2 Sym. Ops. (no inversion) found ( 1 have fractional translation)

                                    s                        frac. trans.

      isym =  1     identity

 cryst.   s( 1) = (     1          0          0      )
                  (     0          1          0      )
                  (     0          0          1      )

 cart.    s( 1) = (  1.0000000  0.0000000  0.0000000 )
                  ( -0.0000000  1.0000000  0.0000000 )
                  (  0.0000000  0.0000000  1.0000000 )

      isym =  2     inv. 180 deg rotation - cart. axis [0,0,1]

 cryst.   s( 2) = (     1          0          0      )    f =(  0.2500000 )
                  (     0          1          0      )       ( -0.2500000 )
                  (    -1         -1         -1      )       (  0.5000000 )

 cart.    s( 2) = (  1.0000000  0.0000000  0.0000000 )    f =( -0.3490742 )
                  ( -0.0000000  1.0000000  0.0000000 )       ( -0.3494510 )
                  (  0.0000000  0.0000000 -1.0000000 )       (  0.1892588 )

   Cartesian axes

     site n.     atom                  positions (alat units)
         1           Ta  tau(   1) = (   0.7695702   0.5236334   0.1892588  )
         2           Ta  tau(   2) = (   1.2635018   0.5233814   0.0000000  )
         3           P   tau(   3) = (   0.7748165   0.1160992   0.1892589  )
         4           P   tau(   4) = (   0.2808849   0.1163512  -0.0000000  )

   Crystallographic axes

     site n.     atom                  positions (cryst. coord.)
         1           Ta  tau(   1) = (  0.4994026  0.9994027  0.4999999  )
         2           Ta  tau(   2) = (  0.7494028  0.7494029  0.0000001  )
         3           P   tau(   3) = (  0.9165973  0.4165972  0.5000001  )
         4           P   tau(   4) = (  0.1665973  0.1665972 -0.0000001  )

     number of k points=   205  Gaussian smearing, width (Ry)=  0.0100
                       cart. coord. in units 2pi/alat
        k(    1) = (   0.0000000   0.0000000   0.0000000), wk =   0.0013717
        k(    2) = (   0.0000000   0.0000000   0.2935427), wk =   0.0027435
        k(    3) = (   0.0000000   0.0000000   0.5870854), wk =   0.0027435
        k(    4) = (   0.0000000   0.0000000   0.8806282), wk =   0.0027435
        k(    5) = (   0.0000000   0.0000000   1.1741709), wk =   0.0027435
        k(    6) = (   0.0000811   0.1588986   0.1467714), wk =   0.0054870
        k(    7) = (   0.0000811   0.1588986   0.4403141), wk =   0.0054870
        k(    8) = (   0.0000811   0.1588986   0.7338568), wk =   0.0054870
        k(    9) = (   0.0000811   0.1588986   1.0273995), wk =   0.0054870
        k(   10) = (   0.0000811   0.1588986   1.3209423), wk =   0.0027435
        k(   11) = (   0.0001621   0.3177971   0.2935427), wk =   0.0054870
        k(   12) = (   0.0001621   0.3177971   0.5870854), wk =   0.0054870
        k(   13) = (   0.0001621   0.3177971   0.8806282), wk =   0.0054870
        k(   14) = (   0.0001621   0.3177971   1.1741709), wk =   0.0054870
        k(   15) = (   0.0001621   0.3177971   0.0000000), wk =   0.0027435
        k(   16) = (   0.0002432   0.4766957   0.4403141), wk =   0.0054870
        k(   17) = (   0.0002432   0.4766957   0.7338568), wk =   0.0054870
        k(   18) = (   0.0002432   0.4766957   1.0273995), wk =   0.0054870
        k(   19) = (   0.0002432   0.4766957   1.3209423), wk =   0.0027435
        k(   20) = (   0.0002432   0.4766957  -0.1467714), wk =   0.0054870
        k(   21) = (   0.0003242   0.6355942   0.5870855), wk =   0.0054870
        k(   22) = (   0.0003242   0.6355942   0.8806282), wk =   0.0054870
        k(   23) = (   0.0003242   0.6355942   1.1741709), wk =   0.0054870
        k(   24) = (   0.0003242   0.6355942  -0.2935427), wk =   0.0054870
        k(   25) = (   0.0003242   0.6355942   0.0000000), wk =   0.0027435
        k(   26) = (   0.1124189  -0.1122977   0.1467714), wk =   0.0054870
        k(   27) = (   0.1124189  -0.1122977   0.4403141), wk =   0.0054870
        k(   28) = (   0.1124189  -0.1122977   0.7338568), wk =   0.0054870
        k(   29) = (   0.1124189  -0.1122977   1.0273995), wk =   0.0054870
        k(   30) = (   0.1124189  -0.1122977   1.3209423), wk =   0.0027435
        k(   31) = (   0.1125000   0.0466008   0.2935427), wk =   0.0054870
        k(   32) = (   0.1125000   0.0466008   0.5870854), wk =   0.0054870
        k(   33) = (   0.1125000   0.0466008   0.8806282), wk =   0.0054870
        k(   34) = (   0.1125000   0.0466008   1.1741709), wk =   0.0054870
        k(   35) = (   0.1125000   0.0466008   0.0000000), wk =   0.0027435
        k(   36) = (   0.1125810   0.2054994   0.4403141), wk =   0.0054870
        k(   37) = (   0.1125810   0.2054994   0.7338568), wk =   0.0054870
        k(   38) = (   0.1125810   0.2054994   1.0273995), wk =   0.0054870
        k(   39) = (   0.1125810   0.2054994   1.3209423), wk =   0.0027435
        k(   40) = (   0.1125810   0.2054994  -0.1467714), wk =   0.0054870
        k(   41) = (   0.1126621   0.3643980   0.5870854), wk =   0.0054870
        k(   42) = (   0.1126621   0.3643980   0.8806282), wk =   0.0054870
        k(   43) = (   0.1126621   0.3643980   1.1741709), wk =   0.0054870
        k(   44) = (   0.1126621   0.3643980  -0.2935427), wk =   0.0054870
        k(   45) = (   0.1126621   0.3643980   0.0000000), wk =   0.0027435
        k(   46) = (   0.1127432   0.5232965   0.7338568), wk =   0.0054870
        k(   47) = (   0.1127432   0.5232965   1.0273995), wk =   0.0054870
        k(   48) = (   0.1127432   0.5232965   1.3209423), wk =   0.0027435
        k(   49) = (   0.1127432   0.5232965  -0.4403141), wk =   0.0054870
        k(   50) = (   0.1127432   0.5232965  -0.1467714), wk =   0.0054870
        k(   51) = (   0.1120947  -0.7478920  -0.4403141), wk =   0.0054870
        k(   52) = (   0.1120947  -0.7478920  -0.1467714), wk =   0.0054870
        k(   53) = (   0.1120947  -0.7478920   0.7338568), wk =   0.0054870
        k(   54) = (   0.1120947  -0.7478920  -1.6144850), wk =   0.0054870
        k(   55) = (   0.1120947  -0.7478920  -1.3209423), wk =   0.0027435
        k(   56) = (   0.1121757  -0.5889934  -0.2935427), wk =   0.0054870
        k(   57) = (   0.1121757  -0.5889934  -0.0000000), wk =   0.0027435
        k(   58) = (   0.1121757  -0.5889934   0.5870854), wk =   0.0054870
        k(   59) = (   0.1121757  -0.5889934   0.8806282), wk =   0.0054870
        k(   60) = (   0.1121757  -0.5889934  -1.4677136), wk =   0.0054870
[...]
        k(  191) = (   0.4494325  -0.9258866   0.1467714), wk =   0.0054870
        k(  192) = (   0.4494325  -0.9258866   0.4403141), wk =   0.0054870
        k(  193) = (   0.4494325  -0.9258866   0.7338568), wk =   0.0054870
        k(  194) = (   0.4494325  -0.9258866   1.0273995), wk =   0.0054870
        k(  195) = (   0.4494325  -0.9258866   1.3209423), wk =   0.0027435
        k(  196) = (   0.4495136  -0.7669880   0.2935427), wk =   0.0054870
        k(  197) = (   0.4495136  -0.7669880   0.5870854), wk =   0.0054870
        k(  198) = (   0.4495136  -0.7669880   0.8806282), wk =   0.0054870
        k(  199) = (   0.4495136  -0.7669880   1.1741709), wk =   0.0054870
        k(  200) = (   0.4495136  -0.7669880  -0.0000000), wk =   0.0027435
        k(  201) = (   0.4495946  -0.6080895   0.4403141), wk =   0.0054870
        k(  202) = (   0.4495946  -0.6080895   0.7338568), wk =   0.0054870
        k(  203) = (   0.4495946  -0.6080895   1.0273995), wk =   0.0054870
        k(  204) = (   0.4495946  -0.6080895   1.3209423), wk =   0.0027435
        k(  205) = (   0.4495946  -0.6080895  -0.1467714), wk =   0.0054870

                       cryst. coord.
        k(    1) = (   0.0000000   0.0000000   0.0000000), wk =   0.0013717
        k(    2) = (   0.0000000   0.0000000   0.1111111), wk =   0.0027435
        k(    3) = (   0.0000000   0.0000000   0.2222222), wk =   0.0027435
        k(    4) = (   0.0000000   0.0000000   0.3333333), wk =   0.0027435
        k(    5) = (   0.0000000   0.0000000   0.4444444), wk =   0.0027435
        k(    6) = (   0.0000000   0.1111111   0.0000000), wk =   0.0054870
        k(    7) = (   0.0000000   0.1111111   0.1111111), wk =   0.0054870
        k(    8) = (   0.0000000   0.1111111   0.2222222), wk =   0.0054870
        k(    9) = (   0.0000000   0.1111111   0.3333333), wk =   0.0054870
        k(   10) = (   0.0000000   0.1111111   0.4444444), wk =   0.0027435
        k(   11) = (   0.0000000   0.2222222   0.0000000), wk =   0.0054870
        k(   12) = (   0.0000000   0.2222222   0.1111111), wk =   0.0054870
        k(   13) = (   0.0000000   0.2222222   0.2222222), wk =   0.0054870
        k(   14) = (   0.0000000   0.2222222   0.3333333), wk =   0.0054870
        k(   15) = (   0.0000000   0.2222222  -0.1111111), wk =   0.0027435
        k(   16) = (  -0.0000000   0.3333333  -0.0000000), wk =   0.0054870
        k(   17) = (  -0.0000000   0.3333333   0.1111111), wk =   0.0054870
        k(   18) = (  -0.0000000   0.3333333   0.2222222), wk =   0.0054870
        k(   19) = (  -0.0000000   0.3333333   0.3333333), wk =   0.0027435
        k(   20) = (  -0.0000000   0.3333333  -0.2222222), wk =   0.0054870
        k(   21) = (   0.0000000   0.4444444   0.0000000), wk =   0.0054870
        k(   22) = (   0.0000000   0.4444444   0.1111111), wk =   0.0054870
        k(   23) = (   0.0000000   0.4444444   0.2222222), wk =   0.0054870
        k(   24) = (   0.0000000   0.4444444  -0.3333333), wk =   0.0054870
        k(   25) = (   0.0000000   0.4444444  -0.2222222), wk =   0.0027435
        k(   26) = (   0.1111111   0.0000000   0.0000000), wk =   0.0054870
        k(   27) = (   0.1111111   0.0000000   0.1111111), wk =   0.0054870
        k(   28) = (   0.1111111   0.0000000   0.2222222), wk =   0.0054870
        k(   29) = (   0.1111111   0.0000000   0.3333333), wk =   0.0054870
        k(   30) = (   0.1111111   0.0000000   0.4444444), wk =   0.0027435
        k(   31) = (   0.1111111   0.1111111   0.0000000), wk =   0.0054870
        k(   32) = (   0.1111111   0.1111111   0.1111111), wk =   0.0054870
        k(   33) = (   0.1111111   0.1111111   0.2222222), wk =   0.0054870
        k(   34) = (   0.1111111   0.1111111   0.3333333), wk =   0.0054870
        k(   35) = (   0.1111111   0.1111111  -0.1111111), wk =   0.0027435
        k(   36) = (   0.1111111   0.2222222   0.0000000), wk =   0.0054870
        k(   37) = (   0.1111111   0.2222222   0.1111111), wk =   0.0054870
        k(   38) = (   0.1111111   0.2222222   0.2222222), wk =   0.0054870
        k(   39) = (   0.1111111   0.2222222   0.3333333), wk =   0.0027435
        k(   40) = (   0.1111111   0.2222222  -0.2222222), wk =   0.0054870
        k(   41) = (   0.1111111   0.3333333  -0.0000000), wk =   0.0054870
        k(   42) = (   0.1111111   0.3333333   0.1111111), wk =   0.0054870
        k(   43) = (   0.1111111   0.3333333   0.2222222), wk =   0.0054870
        k(   44) = (   0.1111111   0.3333333  -0.3333333), wk =   0.0054870
        k(   45) = (   0.1111111   0.3333333  -0.2222222), wk =   0.0027435
        k(   46) = (   0.1111111   0.4444444   0.0000000), wk =   0.0054870
        k(   47) = (   0.1111111   0.4444444   0.1111111), wk =   0.0054870
        k(   48) = (   0.1111111   0.4444444   0.2222222), wk =   0.0027435
        k(   49) = (   0.1111111   0.4444444  -0.4444444), wk =   0.0054870
        k(   50) = (   0.1111111   0.4444444  -0.3333333), wk =   0.0054870
        k(   51) = (   0.1111111  -0.4444444   0.0000000), wk =   0.0054870
        k(   52) = (   0.1111111  -0.4444444   0.1111111), wk =   0.0054870
        k(   53) = (   0.1111111  -0.4444444   0.4444444), wk =   0.0054870
        k(   54) = (   0.1111111  -0.4444444  -0.4444444), wk =   0.0054870
        k(   55) = (   0.1111111  -0.4444444  -0.3333333), wk =   0.0027435
        k(   56) = (   0.1111111  -0.3333333   0.0000000), wk =   0.0054870
        k(   57) = (   0.1111111  -0.3333333   0.1111111), wk =   0.0027435
        k(   58) = (   0.1111111  -0.3333333   0.3333333), wk =   0.0054870
        k(   59) = (   0.1111111  -0.3333333   0.4444444), wk =   0.0054870
        k(   60) = (   0.1111111  -0.3333333  -0.4444444), wk =   0.0054870
[...]
        k(  191) = (   0.4444444  -0.3333333   0.0000000), wk =   0.0054870
        k(  192) = (   0.4444444  -0.3333333   0.1111111), wk =   0.0054870
        k(  193) = (   0.4444444  -0.3333333   0.2222222), wk =   0.0054870
        k(  194) = (   0.4444444  -0.3333333   0.3333333), wk =   0.0054870
        k(  195) = (   0.4444444  -0.3333333   0.4444444), wk =   0.0027435
        k(  196) = (   0.4444444  -0.2222222   0.0000000), wk =   0.0054870
        k(  197) = (   0.4444444  -0.2222222   0.1111111), wk =   0.0054870
        k(  198) = (   0.4444444  -0.2222222   0.2222222), wk =   0.0054870
        k(  199) = (   0.4444444  -0.2222222   0.3333333), wk =   0.0054870
        k(  200) = (   0.4444444  -0.2222222  -0.1111111), wk =   0.0027435
        k(  201) = (   0.4444444  -0.1111111  -0.0000000), wk =   0.0054870
        k(  202) = (   0.4444444  -0.1111111   0.1111111), wk =   0.0054870
        k(  203) = (   0.4444444  -0.1111111   0.2222222), wk =   0.0054870
        k(  204) = (   0.4444444  -0.1111111   0.3333333), wk =   0.0027435
        k(  205) = (   0.4444444  -0.1111111  -0.2222222), wk =   0.0054870

     Initial potential from superposition of free atoms

     starting charge      63.9982, renormalised to      64.0000
     Starting wfcs are   84 randomized atomic wfcs
     Checking if some PAW data can be deallocated...

     Self-consistent Calculation

     iteration #  1     ecut=    60.00 Ry     beta= 0.70
     Davidson diagonalization with overlap

     ethr =  1.00E-02,  avg # of iterations =  3.2

     Threshold (ethr) on eigenvalues was too large:
     Diagonalizing with lowered threshold

     Davidson diagonalization with overlap

[...]

     total energy              =   -2557.82626866 Ry
     estimated scf accuracy    <       0.17652378 Ry

[...]

     c_bands:  1 eigenvalues not converged
     ethr =  3.14E-06,  avg # of iterations =  8.0

[...]

     total energy              =   -2557.90899285 Ry
     estimated scf accuracy    <       0.00000042 Ry

     iteration #  8     ecut=    60.00 Ry     beta= 0.70
     Davidson diagonalization with overlap

     ethr =  6.50E-10,  avg # of iterations =  3.1

     End of self-consistent calculation

          k = 0.0000 0.0000 0.0000 (  3227 PWs)   bands (ev):

   -49.4612 -49.4612 -49.4423 -49.4423 -22.3982 -22.3982 -22.3232 -22.3232
   -13.8515 -13.8515 -13.6413 -13.6413 -13.5941 -13.5941 -13.4982 -13.4982
    -2.3933  -2.3933  -2.3922  -2.3922  -2.3860  -2.3860  -2.3859  -2.3859
    -2.3625  -2.3625  -2.3620  -2.3620  -0.4126  -0.4126  -0.4126  -0.4126
    -0.4089  -0.4089  -0.4085  -0.4085  -0.3969  -0.3969  -0.3957  -0.3957
    -0.3780  -0.3780  -0.3730  -0.3730   4.4759   4.4759   7.4034   7.4034
    11.1620  11.1620  14.8546  14.8546  15.6993  15.6993  15.7561  15.7561
    15.7571  15.7571  16.2900  16.2900  16.6404  16.6404  16.7391  16.7391
    19.3797  19.3797  20.3792  20.3792  20.9774  20.9774  21.6030  21.6030
    21.7303  21.7303  21.8099  21.8099

     occupation numbers
     1.0000   1.0000   1.0000   1.0000   1.0000   1.0000   1.0000   1.0000
     1.0000   1.0000   1.0000   1.0000   1.0000   1.0000   1.0000   1.0000
     1.0000   1.0000   1.0000   1.0000   1.0000   1.0000   1.0000   1.0000
     1.0000   1.0000   1.0000   1.0000   1.0000   1.0000   1.0000   1.0000
     1.0000   1.0000   1.0000   1.0000   1.0000   1.0000   1.0000   1.0000
     1.0000   1.0000   1.0000   1.0000   1.0000   1.0000   1.0000   1.0000
     1.0000   1.0000   1.0000   1.0000   1.0000   1.0000   1.0000   1.0000
     1.0000   1.0000   1.0000   1.0000   1.0000   1.0000   1.0000   1.0000
     0.0000   0.0000   0.0000   0.0000   0.0000   0.0000   0.0000   0.0000
     0.0000   0.0000   0.0000   0.0000

[...]

          k = 0.4496-0.6081-0.1468 (  3254 PWs)   bands (ev):

   -49.4474 -49.4474 -49.4371 -49.4371 -22.4219 -22.4160 -22.3815 -22.3795
   -13.8933 -13.8419 -13.7883 -13.7726 -13.7485 -13.7023 -13.5982 -13.5641
    -2.3931  -2.3929  -2.3926  -2.3923  -2.3875  -2.3864  -2.3852  -2.3845
    -2.3626  -2.3626  -2.3623  -2.3621  -0.4138  -0.4131  -0.4123  -0.4104
    -0.4094  -0.4079  -0.4058  -0.4042  -0.4009  -0.3991  -0.3977  -0.3958
    -0.3778  -0.3752  -0.3744  -0.3730   6.5501   6.5886   7.6593   7.7761
    12.1009  12.1435  12.5104  12.6464  13.5647  13.6697  14.0376  14.1139
    14.9090  14.9386  15.7438  15.8424  17.0316  17.1328  17.4481  17.5497
    19.0226  19.1729  19.8497  20.0151  20.8837  20.9464  22.1169  22.2456
    22.4658  22.5872  22.7507  22.9867

     occupation numbers
     1.0000   1.0000   1.0000   1.0000   1.0000   1.0000   1.0000   1.0000
     1.0000   1.0000   1.0000   1.0000   1.0000   1.0000   1.0000   1.0000
     1.0000   1.0000   1.0000   1.0000   1.0000   1.0000   1.0000   1.0000
     1.0000   1.0000   1.0000   1.0000   1.0000   1.0000   1.0000   1.0000
     1.0000   1.0000   1.0000   1.0000   1.0000   1.0000   1.0000   1.0000
     1.0000   1.0000   1.0000   1.0000   1.0000   1.0000   1.0000   1.0000
     1.0000   1.0000   1.0000   1.0000   1.0000   1.0000   1.0000   1.0000
     1.0000   1.0000   1.0000   1.0000   1.0000   1.0000   1.0000   1.0000
     0.0000   0.0000   0.0000   0.0000   0.0000   0.0000   0.0000   0.0000
     0.0000   0.0000   0.0000   0.0000

     the Fermi energy is    18.3340 ev

!    total energy              =   -2557.90899292 Ry
     total all-electron energy =    -63852.879648 Ry
     estimated scf accuracy    <       0.00000006 Ry
     smearing contrib. (-TS)   =      -0.00036074 Ry
     internal energy E=F+TS    =   -2557.90863217 Ry

     The total energy is F=E-TS. E is the sum of the following terms:
     one-electron contribution =   -1034.18449219 Ry
     hartree contribution      =     599.16770201 Ry
     xc contribution           =    -143.55860736 Ry
     ewald contribution        =    -792.92333941 Ry
     one-center paw contrib.   =   -1186.40989523 Ry
      -> PAW hartree energy AE =     595.49082455 Ry
      -> PAW hartree energy PS =    -589.11064257 Ry
      -> PAW xc energy AE      =    -624.31181907 Ry
      -> PAW xc energy PS      =      65.58838196 Ry
      -> total E_H with PAW    =     605.54788398 Ry
      -> total E_XC with PAW   =    -702.28204447 Ry

     convergence has been achieved in   8 iterations

     Writing all to output data dir ./out/TaP.save/

     General routines

     Parallel routines

     PAW routines

   This run was terminated on:   4:39:35  31Jul2023

   JOB DONE.