     Program PWSCF v.7.2 starts on 30Jul2023 at  2:16:39

     Waiting for input...
     Reading input from standard input
Warning: card &CELL ignored
Warning: card   CELL_DOFREE   = 'IBRAV' ignored
Warning: card / ignored

     Current dimensions of program PWSCF are:
     Max number of different atomic species (ntypx) = 10
     Max number of k-points (npk) =  40000
     Max angular momentum in pseudopotentials (lmaxx) =  4
     file P.pbesol-nl-kjpaw_psl.1.0.0.UPF: wavefunction(s)  3S renormalized
     file Ta.pbesol-spfn-kjpaw_psl.1.0.0.UPF: wavefunction(s)  5S 5P 4F renormalized
     Message from routine setup:
     using ibrav=0 with symmetry is DISCOURAGED, use correct ibrav instead

     R & G space division:  proc/nbgrp/npool/nimage =      16
     Subspace diagonalization in iterative solution of the eigenvalue problem:
     a serial algorithm will be used

     Using Slab Decomposition

     bravais-lattice index     =            0
     lattice parameter (alat)  =      11.6627  a.u.
     unit-cell volume          =     414.7770 (a.u.)^3
     number of atoms/cell      =            4
     number of atomic types    =            2
     number of electrons       =        64.00
     number of Kohn-Sham states=           38
     kinetic-energy cutoff     =      60.0000  Ry
     charge density cutoff     =     600.0000  Ry
     scf convergence threshold =      1.0E-07
     mixing beta               =       0.7000
     number of iterations used =            8  plain     mixing
     Exchange-correlation= SLA  PW   PSX  PSC
                           (   1   4  10   8   0   0   0)

     celldm(1)=  11.662672  celldm(2)=   0.000000  celldm(3)=   0.000000
     celldm(4)=   0.000000  celldm(5)=   0.000000  celldm(6)=   0.000000

     crystal axes: (cart. coord. in units of alat)
               a(1) = (   0.987863  -0.000504  -0.000000 )
               a(2) = (   0.698148   0.698902  -0.000000 )
               a(3) = (  -0.843006  -0.349199   0.378518 )

     reciprocal axes: (cart. coord. in units 2 pi/alat)
               b(1) = (  1.011770 -1.010679  1.320942 )
               b(2) = (  0.000730  1.430087  1.320942 )
               b(3) = (  0.000000  0.000000  2.641885 )

     PseudoPot. # 1 for P  read from file:
     ../00_pseudos/P.pbesol-nl-kjpaw_psl.1.0.0.UPF
     MD5 check sum: 34a32345adceda9079e6f2a80f09309f
     Pseudo is Projector augmented-wave + core cor, Zval =  5.0
     Generated using &quot;atomic&quot; code by A. Dal Corso  v.6.3
     Shape of augmentation charge: PSQ
     Using radial grid of 1147 points,  4 beta functions with:
                l(1) =   0
                l(2) =   0
                l(3) =   1
                l(4) =   1
     Q(r) pseudized with 0 coefficients

     PseudoPot. # 2 for Ta read from file:
     ../00_pseudos/Ta.pbesol-spfn-kjpaw_psl.1.0.0.UPF
     MD5 check sum: 9c59d8f893fdd73654c81ed7880f9ab2
     Pseudo is Projector augmented-wave + core cor, Zval = 27.0
     Generated using &quot;atomic&quot; code by A. Dal Corso  v.6.3
     Shape of augmentation charge: PSQ
     Using radial grid of 1273 points,  8 beta functions with:
                l(1) =   0
                l(2) =   0
                l(3) =   1
                l(4) =   1
                l(5) =   2
                l(6) =   2
                l(7) =   3
                l(8) =   3
     Q(r) pseudized with 0 coefficients

     atomic species   valence    mass     pseudopotential
        P              5.00    30.97300     P ( 1.00)
        Ta            27.00   180.94700     Ta( 1.00)

      2 Sym. Ops. (no inversion) found ( 1 have fractional translation)

                                    s                        frac. trans.

      isym =  1     identity

 cryst.   s( 1) = (     1          0          0      )
                  (     0          1          0      )
                  (     0          0          1      )

 cart.    s( 1) = (  1.0000000  0.0000000  0.0000000 )
                  ( -0.0000000  1.0000000  0.0000000 )
                  (  0.0000000  0.0000000  1.0000000 )

      isym =  2     inv. 180 deg rotation - cart. axis [0,0,1]

 cryst.   s( 2) = (     1          0          0      )    f =(  0.2500000 )
                  (     0          1          0      )       ( -0.2500000 )
                  (    -1         -1         -1      )       (  0.5000000 )

 cart.    s( 2) = (  1.0000000  0.0000000  0.0000000 )    f =( -0.3490742 )
                  ( -0.0000000  1.0000000  0.0000000 )       ( -0.3494510 )
                  (  0.0000000  0.0000000 -1.0000000 )       (  0.1892588 )

   Cartesian axes

     site n.     atom                  positions (alat units)
         1           Ta  tau(   1) = (   0.7695702   0.5236334   0.1892588  )
         2           Ta  tau(   2) = (   1.2635018   0.5233814   0.0000000  )
         3           P   tau(   3) = (   0.7748165   0.1160992   0.1892589  )
         4           P   tau(   4) = (   0.2808849   0.1163512  -0.0000000  )

   Crystallographic axes

     site n.     atom                  positions (cryst. coord.)
         1           Ta  tau(   1) = (  0.4994026  0.9994027  0.4999999  )
         2           Ta  tau(   2) = (  0.7494028  0.7494029  0.0000001  )
         3           P   tau(   3) = (  0.9165973  0.4165972  0.5000001  )
         4           P   tau(   4) = (  0.1665973  0.1665972 -0.0000001  )

     number of k points=   205  Gaussian smearing, width (Ry)=  0.0100
                       cart. coord. in units 2pi/alat
        k(    1) = (   0.0000000   0.0000000   0.0000000), wk =   0.0027435
        k(    2) = (   0.0000000   0.0000000   0.2935427), wk =   0.0054870
        k(    3) = (   0.0000000   0.0000000   0.5870854), wk =   0.0054870
        k(    4) = (   0.0000000   0.0000000   0.8806282), wk =   0.0054870
        k(    5) = (   0.0000000   0.0000000   1.1741709), wk =   0.0054870
        k(    6) = (   0.0000811   0.1588986   0.1467714), wk =   0.0109739
        k(    7) = (   0.0000811   0.1588986   0.4403141), wk =   0.0109739
        k(    8) = (   0.0000811   0.1588986   0.7338568), wk =   0.0109739
        k(    9) = (   0.0000811   0.1588986   1.0273995), wk =   0.0109739
        k(   10) = (   0.0000811   0.1588986   1.3209423), wk =   0.0054870
        k(   11) = (   0.0001621   0.3177971   0.2935427), wk =   0.0109739
        k(   12) = (   0.0001621   0.3177971   0.5870854), wk =   0.0109739
        k(   13) = (   0.0001621   0.3177971   0.8806282), wk =   0.0109739
        k(   14) = (   0.0001621   0.3177971   1.1741709), wk =   0.0109739
        k(   15) = (   0.0001621   0.3177971   0.0000000), wk =   0.0054870
        k(   16) = (   0.0002432   0.4766957   0.4403141), wk =   0.0109739
        k(   17) = (   0.0002432   0.4766957   0.7338568), wk =   0.0109739
        k(   18) = (   0.0002432   0.4766957   1.0273995), wk =   0.0109739
        k(   19) = (   0.0002432   0.4766957   1.3209423), wk =   0.0054870
        k(   20) = (   0.0002432   0.4766957  -0.1467714), wk =   0.0109739
        k(   21) = (   0.0003242   0.6355942   0.5870855), wk =   0.0109739
        k(   22) = (   0.0003242   0.6355942   0.8806282), wk =   0.0109739
        k(   23) = (   0.0003242   0.6355942   1.1741709), wk =   0.0109739
        k(   24) = (   0.0003242   0.6355942  -0.2935427), wk =   0.0109739
        k(   25) = (   0.0003242   0.6355942   0.0000000), wk =   0.0054870
        k(   26) = (   0.1124189  -0.1122977   0.1467714), wk =   0.0109739
        k(   27) = (   0.1124189  -0.1122977   0.4403141), wk =   0.0109739
        k(   28) = (   0.1124189  -0.1122977   0.7338568), wk =   0.0109739
        k(   29) = (   0.1124189  -0.1122977   1.0273995), wk =   0.0109739
        k(   30) = (   0.1124189  -0.1122977   1.3209423), wk =   0.0054870
        k(   31) = (   0.1125000   0.0466008   0.2935427), wk =   0.0109739
        k(   32) = (   0.1125000   0.0466008   0.5870854), wk =   0.0109739
        k(   33) = (   0.1125000   0.0466008   0.8806282), wk =   0.0109739
        k(   34) = (   0.1125000   0.0466008   1.1741709), wk =   0.0109739
        k(   35) = (   0.1125000   0.0466008   0.0000000), wk =   0.0054870
        k(   36) = (   0.1125810   0.2054994   0.4403141), wk =   0.0109739
        k(   37) = (   0.1125810   0.2054994   0.7338568), wk =   0.0109739
        k(   38) = (   0.1125810   0.2054994   1.0273995), wk =   0.0109739
        k(   39) = (   0.1125810   0.2054994   1.3209423), wk =   0.0054870
        k(   40) = (   0.1125810   0.2054994  -0.1467714), wk =   0.0109739
        k(   41) = (   0.1126621   0.3643980   0.5870854), wk =   0.0109739
        k(   42) = (   0.1126621   0.3643980   0.8806282), wk =   0.0109739
        k(   43) = (   0.1126621   0.3643980   1.1741709), wk =   0.0109739
        k(   44) = (   0.1126621   0.3643980  -0.2935427), wk =   0.0109739
        k(   45) = (   0.1126621   0.3643980   0.0000000), wk =   0.0054870
        k(   46) = (   0.1127432   0.5232965   0.7338568), wk =   0.0109739
        k(   47) = (   0.1127432   0.5232965   1.0273995), wk =   0.0109739
        k(   48) = (   0.1127432   0.5232965   1.3209423), wk =   0.0054870
        k(   49) = (   0.1127432   0.5232965  -0.4403141), wk =   0.0109739
        k(   50) = (   0.1127432   0.5232965  -0.1467714), wk =   0.0109739
        k(   51) = (   0.1120947  -0.7478920  -0.4403141), wk =   0.0109739
        k(   52) = (   0.1120947  -0.7478920  -0.1467714), wk =   0.0109739
        k(   53) = (   0.1120947  -0.7478920   0.7338568), wk =   0.0109739
        k(   54) = (   0.1120947  -0.7478920  -1.6144850), wk =   0.0109739
        k(   55) = (   0.1120947  -0.7478920  -1.3209423), wk =   0.0054870
        k(   56) = (   0.1121757  -0.5889934  -0.2935427), wk =   0.0109739
        k(   57) = (   0.1121757  -0.5889934  -0.0000000), wk =   0.0054870
        k(   58) = (   0.1121757  -0.5889934   0.5870854), wk =   0.0109739
        k(   59) = (   0.1121757  -0.5889934   0.8806282), wk =   0.0109739
        k(   60) = (   0.1121757  -0.5889934  -1.4677136), wk =   0.0109739
[...]
        k(  191) = (   0.4494325  -0.9258866   0.1467714), wk =   0.0109739
        k(  192) = (   0.4494325  -0.9258866   0.4403141), wk =   0.0109739
        k(  193) = (   0.4494325  -0.9258866   0.7338568), wk =   0.0109739
        k(  194) = (   0.4494325  -0.9258866   1.0273995), wk =   0.0109739
        k(  195) = (   0.4494325  -0.9258866   1.3209423), wk =   0.0054870
        k(  196) = (   0.4495136  -0.7669880   0.2935427), wk =   0.0109739
        k(  197) = (   0.4495136  -0.7669880   0.5870854), wk =   0.0109739
        k(  198) = (   0.4495136  -0.7669880   0.8806282), wk =   0.0109739
        k(  199) = (   0.4495136  -0.7669880   1.1741709), wk =   0.0109739
        k(  200) = (   0.4495136  -0.7669880  -0.0000000), wk =   0.0054870
        k(  201) = (   0.4495946  -0.6080895   0.4403141), wk =   0.0109739
        k(  202) = (   0.4495946  -0.6080895   0.7338568), wk =   0.0109739
        k(  203) = (   0.4495946  -0.6080895   1.0273995), wk =   0.0109739
        k(  204) = (   0.4495946  -0.6080895   1.3209423), wk =   0.0054870
        k(  205) = (   0.4495946  -0.6080895  -0.1467714), wk =   0.0109739

                       cryst. coord.
        k(    1) = (   0.0000000   0.0000000   0.0000000), wk =   0.0027435
        k(    2) = (   0.0000000   0.0000000   0.1111111), wk =   0.0054870
        k(    3) = (   0.0000000   0.0000000   0.2222222), wk =   0.0054870
        k(    4) = (   0.0000000   0.0000000   0.3333333), wk =   0.0054870
        k(    5) = (   0.0000000   0.0000000   0.4444444), wk =   0.0054870
        k(    6) = (   0.0000000   0.1111111   0.0000000), wk =   0.0109739
        k(    7) = (   0.0000000   0.1111111   0.1111111), wk =   0.0109739
        k(    8) = (   0.0000000   0.1111111   0.2222222), wk =   0.0109739
        k(    9) = (   0.0000000   0.1111111   0.3333333), wk =   0.0109739
        k(   10) = (   0.0000000   0.1111111   0.4444444), wk =   0.0054870
        k(   11) = (   0.0000000   0.2222222   0.0000000), wk =   0.0109739
        k(   12) = (   0.0000000   0.2222222   0.1111111), wk =   0.0109739
        k(   13) = (   0.0000000   0.2222222   0.2222222), wk =   0.0109739
        k(   14) = (   0.0000000   0.2222222   0.3333333), wk =   0.0109739
        k(   15) = (   0.0000000   0.2222222  -0.1111111), wk =   0.0054870
        k(   16) = (  -0.0000000   0.3333333  -0.0000000), wk =   0.0109739
        k(   17) = (  -0.0000000   0.3333333   0.1111111), wk =   0.0109739
        k(   18) = (  -0.0000000   0.3333333   0.2222222), wk =   0.0109739
        k(   19) = (  -0.0000000   0.3333333   0.3333333), wk =   0.0054870
        k(   20) = (  -0.0000000   0.3333333  -0.2222222), wk =   0.0109739
        k(   21) = (   0.0000000   0.4444444   0.0000000), wk =   0.0109739
        k(   22) = (   0.0000000   0.4444444   0.1111111), wk =   0.0109739
        k(   23) = (   0.0000000   0.4444444   0.2222222), wk =   0.0109739
        k(   24) = (   0.0000000   0.4444444  -0.3333333), wk =   0.0109739
        k(   25) = (   0.0000000   0.4444444  -0.2222222), wk =   0.0054870
        k(   26) = (   0.1111111   0.0000000   0.0000000), wk =   0.0109739
        k(   27) = (   0.1111111   0.0000000   0.1111111), wk =   0.0109739
        k(   28) = (   0.1111111   0.0000000   0.2222222), wk =   0.0109739
        k(   29) = (   0.1111111   0.0000000   0.3333333), wk =   0.0109739
        k(   30) = (   0.1111111   0.0000000   0.4444444), wk =   0.0054870
        k(   31) = (   0.1111111   0.1111111   0.0000000), wk =   0.0109739
        k(   32) = (   0.1111111   0.1111111   0.1111111), wk =   0.0109739
        k(   33) = (   0.1111111   0.1111111   0.2222222), wk =   0.0109739
        k(   34) = (   0.1111111   0.1111111   0.3333333), wk =   0.0109739
        k(   35) = (   0.1111111   0.1111111  -0.1111111), wk =   0.0054870
        k(   36) = (   0.1111111   0.2222222   0.0000000), wk =   0.0109739
        k(   37) = (   0.1111111   0.2222222   0.1111111), wk =   0.0109739
        k(   38) = (   0.1111111   0.2222222   0.2222222), wk =   0.0109739
        k(   39) = (   0.1111111   0.2222222   0.3333333), wk =   0.0054870
        k(   40) = (   0.1111111   0.2222222  -0.2222222), wk =   0.0109739
        k(   41) = (   0.1111111   0.3333333  -0.0000000), wk =   0.0109739
        k(   42) = (   0.1111111   0.3333333   0.1111111), wk =   0.0109739
        k(   43) = (   0.1111111   0.3333333   0.2222222), wk =   0.0109739
        k(   44) = (   0.1111111   0.3333333  -0.3333333), wk =   0.0109739
        k(   45) = (   0.1111111   0.3333333  -0.2222222), wk =   0.0054870
        k(   46) = (   0.1111111   0.4444444   0.0000000), wk =   0.0109739
        k(   47) = (   0.1111111   0.4444444   0.1111111), wk =   0.0109739
        k(   48) = (   0.1111111   0.4444444   0.2222222), wk =   0.0054870
        k(   49) = (   0.1111111   0.4444444  -0.4444444), wk =   0.0109739
        k(   50) = (   0.1111111   0.4444444  -0.3333333), wk =   0.0109739
        k(   51) = (   0.1111111  -0.4444444   0.0000000), wk =   0.0109739
        k(   52) = (   0.1111111  -0.4444444   0.1111111), wk =   0.0109739
        k(   53) = (   0.1111111  -0.4444444   0.4444444), wk =   0.0109739
        k(   54) = (   0.1111111  -0.4444444  -0.4444444), wk =   0.0109739
        k(   55) = (   0.1111111  -0.4444444  -0.3333333), wk =   0.0054870
        k(   56) = (   0.1111111  -0.3333333   0.0000000), wk =   0.0109739
        k(   57) = (   0.1111111  -0.3333333   0.1111111), wk =   0.0054870
        k(   58) = (   0.1111111  -0.3333333   0.3333333), wk =   0.0109739
        k(   59) = (   0.1111111  -0.3333333   0.4444444), wk =   0.0109739
        k(   60) = (   0.1111111  -0.3333333  -0.4444444), wk =   0.0109739
[...]
        k(  191) = (   0.4444444  -0.3333333   0.0000000), wk =   0.0109739
        k(  192) = (   0.4444444  -0.3333333   0.1111111), wk =   0.0109739
        k(  193) = (   0.4444444  -0.3333333   0.2222222), wk =   0.0109739
        k(  194) = (   0.4444444  -0.3333333   0.3333333), wk =   0.0109739
        k(  195) = (   0.4444444  -0.3333333   0.4444444), wk =   0.0054870
        k(  196) = (   0.4444444  -0.2222222   0.0000000), wk =   0.0109739
        k(  197) = (   0.4444444  -0.2222222   0.1111111), wk =   0.0109739
        k(  198) = (   0.4444444  -0.2222222   0.2222222), wk =   0.0109739
        k(  199) = (   0.4444444  -0.2222222   0.3333333), wk =   0.0109739
        k(  200) = (   0.4444444  -0.2222222  -0.1111111), wk =   0.0054870
        k(  201) = (   0.4444444  -0.1111111  -0.0000000), wk =   0.0109739
        k(  202) = (   0.4444444  -0.1111111   0.1111111), wk =   0.0109739
        k(  203) = (   0.4444444  -0.1111111   0.2222222), wk =   0.0109739
        k(  204) = (   0.4444444  -0.1111111   0.3333333), wk =   0.0054870
        k(  205) = (   0.4444444  -0.1111111  -0.2222222), wk =   0.0109739

     Initial potential from superposition of free atoms

     starting charge      63.9981, renormalised to      64.0000
     Starting wfcs are   42 randomized atomic wfcs
     Checking if some PAW data can be deallocated...

     Self-consistent Calculation

     iteration #  1     ecut=    60.00 Ry     beta= 0.70
     Davidson diagonalization with overlap

     ethr =  1.00E-02,  avg # of iterations =  3.1

     Threshold (ethr) on eigenvalues was too large:
     Diagonalizing with lowered threshold

     Davidson diagonalization with overlap

[...]

     total energy              =   -2549.08155427 Ry
     estimated scf accuracy    <       0.12984401 Ry

[...]

     c_bands:  1 eigenvalues not converged
     c_bands:  1 eigenvalues not converged
     c_bands:  1 eigenvalues not converged
     c_bands:  1 eigenvalues not converged
     c_bands:  1 eigenvalues not converged
     c_bands:  1 eigenvalues not converged
     c_bands:  1 eigenvalues not converged
     ethr =  1.11E-06,  avg # of iterations =  8.2

[...]

     total energy              =   -2549.13376622 Ry
     estimated scf accuracy    <       0.00000137 Ry

     iteration #  7     ecut=    60.00 Ry     beta= 0.70
     Davidson diagonalization with overlap

     ethr =  2.14E-09,  avg # of iterations =  2.7

     End of self-consistent calculation

          k = 0.0000 0.0000 0.0000 (  3227 PWs)   bands (ev):

   -49.6825 -49.6640 -16.3639 -16.1935 -16.1935 -16.0445 -16.0445 -15.9934
    -1.4332  -1.4301  -1.4256  -1.4256  -1.4219  -1.4219  -1.4155  -1.4155
    -1.4155  -1.4061  -1.4003  -1.3914  -1.3842  -1.3842   4.4664   7.3961
    11.1578  14.8539  15.7356  15.7505  15.7505  16.2906  16.6789  16.6789
    19.3519  20.3575  20.9736  21.6054  21.7486  21.7486

     occupation numbers
     1.0000   1.0000   1.0000   1.0000   1.0000   1.0000   1.0000   1.0000
     1.0000   1.0000   1.0000   1.0000   1.0000   1.0000   1.0000   1.0000
     1.0000   1.0000   1.0000   1.0000   1.0000   1.0000   1.0000   1.0000
     1.0000   1.0000   1.0000   1.0000   1.0000   1.0000   1.0000   1.0000
     0.0000   0.0000   0.0000   0.0000   0.0000   0.0000

[...]

          k = 0.4496-0.6081-0.1468 (  3254 PWs)   bands (ev):

   -49.6690 -49.6589 -16.3871 -16.2997 -16.2434 -16.1904 -16.1160 -16.0259
    -1.4305  -1.4279  -1.4264  -1.4254  -1.4225  -1.4196  -1.4187  -1.4169
    -1.4145  -1.4105  -1.3936  -1.3900  -1.3880  -1.3861   6.5617   7.7130
    12.1214  12.5801  13.6293  14.0658  14.9174  15.7952  17.0972  17.4866
    19.0747  19.9117  20.9025  22.1954  22.4838  22.8436

     occupation numbers
     1.0000   1.0000   1.0000   1.0000   1.0000   1.0000   1.0000   1.0000
     1.0000   1.0000   1.0000   1.0000   1.0000   1.0000   1.0000   1.0000
     1.0000   1.0000   1.0000   1.0000   1.0000   1.0000   1.0000   1.0000
     1.0000   1.0000   1.0000   1.0000   1.0000   1.0000   1.0000   1.0000
     0.0000   0.0000   0.0000   0.0000   0.0000   0.0000

     the Fermi energy is    18.3106 ev

!    total energy              =   -2549.13376656 Ry
     total all-electron energy =    -63767.572790 Ry
     estimated scf accuracy    <       0.00000003 Ry
     smearing contrib. (-TS)   =      -0.00045093 Ry
     internal energy E=F+TS    =   -2549.13331563 Ry

     The total energy is F=E-TS. E is the sum of the following terms:
     one-electron contribution =   -1034.14103738 Ry
     hartree contribution      =     598.72298175 Ry
     xc contribution           =    -143.32481087 Ry
     ewald contribution        =    -792.92333941 Ry
     one-center paw contrib.   =   -1177.46710972 Ry
      -> PAW hartree energy AE =     595.67291891 Ry
      -> PAW hartree energy PS =    -589.10225727 Ry
      -> PAW xc energy AE      =    -619.92927492 Ry
      -> PAW xc energy PS      =      65.47879373 Ry
      -> total E_H with PAW    =     605.29364338 Ry
      -> total E_XC with PAW   =    -697.77529206 Ry

     convergence has been achieved in   7 iterations

     Writing all to output data dir ./out/TaP.save/

     General routines

     Parallel routines

     PAW routines

   This run was terminated on:   2:19:34  30Jul2023

   JOB DONE.