     Program PWSCF v.7.3 starts on 19Feb2024 at 23:15:57

     Waiting for input...
     Reading input from standard input

     Current dimensions of program PWSCF are:
     Max number of different atomic species (ntypx) = 10
     Max number of k-points (npk) =  40000
     Max angular momentum in pseudopotentials (lmaxx) =  4
     Message from routine setup:
     using ibrav=0 with symmetry is DISCOURAGED, use correct ibrav instead

     R & G space division:  proc/nbgrp/npool/nimage =      48
     Subspace diagonalization in iterative solution of the eigenvalue problem:
     one sub-group per band group will be used

     Using Slab Decomposition

     bravais-lattice index     =            0
     lattice parameter (alat)  =      12.6022  a.u.
     unit-cell volume          =    3433.0998 (a.u.)^3
     number of atoms/cell      =           33
     number of atomic types    =            3
     number of electrons       =       289.00
     number of Kohn-Sham states=          174
     kinetic-energy cutoff     =      50.0000  Ry
     charge density cutoff     =     400.0000  Ry
     scf convergence threshold =      1.0E-04
     mixing beta               =       0.3000
     number of iterations used =            8  plain     mixing
     energy convergence thresh.=      1.0E-05
     force convergence thresh. =      1.0E-04
     Exchange-correlation= SLA  PW   PBE  PBE
                           (   1   4   3   4   0   0   0)
     nstep                     =           50

     celldm(1)=  12.602165  celldm(2)=   0.000000  celldm(3)=   0.000000
     celldm(4)=   0.000000  celldm(5)=   0.000000  celldm(6)=   0.000000

     crystal axes: (cart. coord. in units of alat)
               a(1) = (   1.000000   0.000000   0.000000 )
               a(2) = (   0.000000   1.000017   0.000000 )
               a(3) = (   0.000000   0.000000   1.715313 )

     reciprocal axes: (cart. coord. in units 2 pi/alat)
               b(1) = (  1.000000  0.000000  0.000000 )
               b(2) = (  0.000000  0.999983  0.000000 )
               b(3) = (  0.000000  0.000000  0.582984 )

     PseudoPot. # 1 for H  read from file:
     ../00_pseudos/H.pbe-rrkjus_psl.1.0.0.UPF
     MD5 check sum: f52b6d4d1c606e5624b1dc7b2218f220
     Pseudo is Ultrasoft, Zval =  1.0
     Generated using "atomic" code by A. Dal Corso  v.5.1
     Using radial grid of  929 points,  2 beta functions with:
                l(1) =   0
                l(2) =   0
     Q(r) pseudized with 0 coefficients

     PseudoPot. # 2 for P  read from file:
     ../00_pseudos/P.pbe-n-rrkjus_psl.1.0.0.UPF
     MD5 check sum: 8b930f418f0a4573dca56cd030ffe088
     Pseudo is Ultrasoft + core correction, Zval =  5.0
     Generated using "atomic" code by A. Dal Corso  v.5.1
     Using radial grid of 1147 points,  6 beta functions with:
                l(1) =   0
                l(2) =   0
                l(3) =   1
                l(4) =   1
                l(5) =   2
                l(6) =   2
     Q(r) pseudized with 0 coefficients

     PseudoPot. # 3 for Ta read from file:
     ../00_pseudos/Ta_pbe_v1.uspp.F.UPF
     MD5 check sum: f8bbe9446314a3b8ea5d9f3e3836c939
     Pseudo is Ultrasoft + core correction, Zval = 13.0
     Generated by new atomic code, or converted to UPF format
     Using radial grid of  921 points,  7 beta functions with:
                l(1) =   0
                l(2) =   0
                l(3) =   1
                l(4) =   1
                l(5) =   2
                l(6) =   2
                l(7) =   3
     Q(r) pseudized with  6 coefficients,  rinner =    1.300   1.300   1.300
                                                       1.300   1.300   1.300
                                                       1.300

     atomic species   valence    mass     pseudopotential
     H                 1.00     1.00794     H ( 1.00)
     P                 5.00    30.97376     P ( 1.00)
     Ta               13.00   180.94788     Ta( 1.00)

      4 Sym. Ops. (no inversion) found

                                    s                        frac. trans.

      isym =  1     identity

 cryst.   s( 1) = (     1          0          0      )
                  (     0          1          0      )
                  (     0          0          1      )

 cart.    s( 1) = (  1.0000000  0.0000000  0.0000000 )
                  (  0.0000000  1.0000000  0.0000000 )
                  (  0.0000000  0.0000000  1.0000000 )

      isym =  2     180 deg rotation - cart. axis [0,0,1]

[...]

      isym =  3     inv. 180 deg rotation - cart. axis [0,1,0]

[...]

      isym =  4     inv. 180 deg rotation - cart. axis [1,0,0]

 cryst.   s( 4) = (    -1          0          0      )
                  (     0          1          0      )
                  (     0          0          1      )

 cart.    s( 4) = ( -1.0000000  0.0000000  0.0000000 )
                  (  0.0000000  1.0000000  0.0000000 )
                  (  0.0000000  0.0000000  1.0000000 )

   Cartesian axes

     site n.     atom                  positions (alat units)
         1        H      tau(   1) = (   0.0000000   0.0000000   0.2864949  )
         2        P      tau(   2) = (   0.0000000   0.0000000   1.0007895  )
         3        P      tau(   3) = (   0.0000000   0.5000087   1.0007895  )
         4        P      tau(   4) = (   0.5000000   0.0000000   1.0007895  )
         5        P      tau(   5) = (   0.5000000   0.5000087   1.0007895  )
         6        P      tau(   6) = (   0.2500000   0.2500044   0.1431329  )
         7        P      tau(   7) = (   0.2500000   0.7500131   0.1431329  )
         8        P      tau(   8) = (   0.7500000   0.2500044   0.1431329  )
         9        P      tau(   9) = (   0.7500000   0.7500131   0.1431329  )
        10        P      tau(  10) = (   0.2500000   0.0000000   0.5719655  )
        11        P      tau(  11) = (   0.2500000   0.5000087   0.5719655  )
        12        P      tau(  12) = (   0.7500000   0.0000000   0.5719655  )
        13        P      tau(  13) = (   0.7500000   0.5000087   0.5719655  )
        14        P      tau(  14) = (   0.0000000   0.2500044   1.4296216  )
        15        P      tau(  15) = (   0.0000000   0.7500131   1.4296216  )
        16        P      tau(  16) = (   0.5000000   0.2500044   1.4296216  )
        17        P      tau(  17) = (   0.5000000   0.7500131   1.4296216  )
        18        Ta     tau(  18) = (   0.0000000   0.0000000   0.0006095  )
        19        Ta     tau(  19) = (   0.0000000   0.5000087   0.0006095  )
        20        Ta     tau(  20) = (   0.5000000   0.0000000   0.0006095  )
        21        Ta     tau(  21) = (   0.5000000   0.5000087   0.0006095  )
        22        Ta     tau(  22) = (   0.2500000   0.2500044   0.8582661  )
        23        Ta     tau(  23) = (   0.2500000   0.7500131   0.8582661  )
        24        Ta     tau(  24) = (   0.7500000   0.2500044   0.8582661  )
        25        Ta     tau(  25) = (   0.7500000   0.7500131   0.8582661  )
        26        Ta     tau(  26) = (   0.0000000   0.2500044   0.4294318  )
        27        Ta     tau(  27) = (   0.0000000   0.7500131   0.4294318  )
        28        Ta     tau(  28) = (   0.5000000   0.2500044   0.4294318  )
        29        Ta     tau(  29) = (   0.5000000   0.7500131   0.4294318  )
        30        Ta     tau(  30) = (   0.2500000   0.0000000   1.2870883  )
        31        Ta     tau(  31) = (   0.2500000   0.5000087   1.2870883  )
        32        Ta     tau(  32) = (   0.7500000   0.0000000   1.2870883  )
        33        Ta     tau(  33) = (   0.7500000   0.5000087   1.2870883  )

   Crystallographic axes

     site n.     atom                  positions (cryst. coord.)
         1        H      tau(   1) = (  0.0000000  0.0000000  0.1670220  )
         2        P      tau(   2) = (  0.0000000  0.0000000  0.5834443  )
         3        P      tau(   3) = (  0.0000000  0.5000000  0.5834443  )
         4        P      tau(   4) = (  0.5000000  0.0000000  0.5834443  )
         5        P      tau(   5) = (  0.5000000  0.5000000  0.5834443  )
         6        P      tau(   6) = (  0.2500000  0.2500000  0.0834442  )
         7        P      tau(   7) = (  0.2500000  0.7500000  0.0834442  )
         8        P      tau(   8) = (  0.7500000  0.2500000  0.0834442  )
         9        P      tau(   9) = (  0.7500000  0.7500000  0.0834442  )
        10        P      tau(  10) = (  0.2500000  0.0000000  0.3334467  )
        11        P      tau(  11) = (  0.2500000  0.5000000  0.3334467  )
        12        P      tau(  12) = (  0.7500000  0.0000000  0.3334467  )
        13        P      tau(  13) = (  0.7500000  0.5000000  0.3334467  )
        14        P      tau(  14) = (  0.0000000  0.2500000  0.8334465  )
        15        P      tau(  15) = (  0.0000000  0.7500000  0.8334465  )
        16        P      tau(  16) = (  0.5000000  0.2500000  0.8334465  )
        17        P      tau(  17) = (  0.5000000  0.7500000  0.8334465  )
        18        Ta     tau(  18) = (  0.0000000  0.0000000  0.0003553  )
        19        Ta     tau(  19) = (  0.0000000  0.5000000  0.0003553  )
        20        Ta     tau(  20) = (  0.5000000  0.0000000  0.0003553  )
        21        Ta     tau(  21) = (  0.5000000  0.5000000  0.0003553  )
        22        Ta     tau(  22) = (  0.2500000  0.2500000  0.5003554  )
        23        Ta     tau(  23) = (  0.2500000  0.7500000  0.5003554  )
        24        Ta     tau(  24) = (  0.7500000  0.2500000  0.5003554  )
        25        Ta     tau(  25) = (  0.7500000  0.7500000  0.5003554  )
        26        Ta     tau(  26) = (  0.0000000  0.2500000  0.2503519  )
        27        Ta     tau(  27) = (  0.0000000  0.7500000  0.2503519  )
        28        Ta     tau(  28) = (  0.5000000  0.2500000  0.2503519  )
        29        Ta     tau(  29) = (  0.5000000  0.7500000  0.2503519  )
        30        Ta     tau(  30) = (  0.2500000  0.0000000  0.7503519  )
        31        Ta     tau(  31) = (  0.2500000  0.5000000  0.7503519  )
        32        Ta     tau(  32) = (  0.7500000  0.0000000  0.7503519  )
        33        Ta     tau(  33) = (  0.7500000  0.5000000  0.7503519  )

     number of k points=     8  Methfessel-Paxton smearing, width (Ry)=  0.0100
                       cart. coord. in units 2pi/alat
        k(    1) = (   0.0000000   0.0000000   0.0000000), wk =   0.0740741
        k(    2) = (   0.0000000   0.0000000   0.1943280), wk =   0.1481481
        k(    3) = (   0.0000000   0.3333275   0.0000000), wk =   0.1481481
        k(    4) = (   0.0000000   0.3333275   0.1943280), wk =   0.2962963
        k(    5) = (   0.3333333   0.0000000   0.0000000), wk =   0.1481481
        k(    6) = (   0.3333333   0.0000000   0.1943280), wk =   0.2962963
        k(    7) = (   0.3333333   0.3333275   0.0000000), wk =   0.2962963
        k(    8) = (   0.3333333   0.3333275   0.1943280), wk =   0.5925926

                       cryst. coord.
        k(    1) = (   0.0000000   0.0000000   0.0000000), wk =   0.0740741
        k(    2) = (   0.0000000   0.0000000   0.3333333), wk =   0.1481481
        k(    3) = (   0.0000000   0.3333333   0.0000000), wk =   0.1481481
[...]
     atom   24 type  3   force =     0.00052574   -0.00258126   -0.02005716
     atom   25 type  3   force =     0.00052574    0.00258126   -0.02005716
     atom   26 type  3   force =     0.00000000   -0.08598692   -0.06743028
     atom   27 type  3   force =     0.00000000    0.08598692   -0.06743028
     atom   28 type  3   force =     0.00000000    0.00196030   -0.01133287
     atom   29 type  3   force =     0.00000000   -0.00196030   -0.01133287
     atom   30 type  3   force =    -0.00186980    0.00000000   -0.00642636
     atom   31 type  3   force =    -0.00310450    0.00000000   -0.00739842
     atom   32 type  3   force =     0.00186980    0.00000000   -0.00642636
     atom   33 type  3   force =     0.00310450   -0.00000000   -0.00739842
     The ionic contribution  to forces
     atom    1 type  1   force =     0.00000000    0.00000000    0.11380187
     atom    2 type  2   force =    -0.00000000   -0.00000000   -0.18547205
     atom    3 type  2   force =    -0.00000000   -0.00000000   -0.14091495
     atom    4 type  2   force =     0.00000000   -0.00000000   -0.15309239
     atom    5 type  2   force =    -0.00000000   -0.00000000   -0.16897869
     atom    6 type  2   force =    -0.02583108    0.01154122   -0.00160811
     atom    7 type  2   force =    -0.02583108   -0.01154122   -0.00160811
     atom    8 type  2   force =     0.02583108    0.01154122   -0.00160811
     atom    9 type  2   force =     0.02583108   -0.01154122   -0.00160811
     atom   10 type  2   force =     0.01613582    0.00000000    0.00247364
     atom   11 type  2   force =     0.11096667   -0.00000000   -0.04044479
     atom   12 type  2   force =    -0.01613582    0.00000000    0.00247364
     atom   13 type  2   force =    -0.11096667   -0.00000000   -0.04044479
     atom   14 type  2   force =     0.00000000    0.01991979   -0.17051189
     atom   15 type  2   force =     0.00000000   -0.01991979   -0.17051189
     atom   16 type  2   force =    -0.00000000   -0.03633263   -0.15913269
     atom   17 type  2   force =    -0.00000000    0.03633263   -0.15913269
     atom   18 type  3   force =     0.00000000   -0.00000000   -0.81468912
     atom   19 type  3   force =     0.00000000   -0.00000000    0.16044574
     atom   20 type  3   force =     0.00000000   -0.00000000    0.19046627
     atom   21 type  3   force =     0.00000000   -0.00000000    0.20269653
     atom   22 type  3   force =     0.00923971   -0.05136598   -0.00250036
     atom   23 type  3   force =     0.00923971    0.05136598   -0.00250036
     atom   24 type  3   force =    -0.00923971   -0.05136598   -0.00250036
     atom   25 type  3   force =    -0.00923971    0.05136598   -0.00250036
     atom   26 type  3   force =     0.00000000    0.83017433    0.74430715
     atom   27 type  3   force =     0.00000000   -0.83017433    0.74430715
     atom   28 type  3   force =    -0.00000000    0.10159646    0.26979747
     atom   29 type  3   force =    -0.00000000   -0.10159646    0.26979747
     atom   30 type  3   force =     0.05430595   -0.00000000   -0.15099796
     atom   31 type  3   force =    -0.03522703    0.00000000   -0.08940560
     atom   32 type  3   force =    -0.05430595   -0.00000000   -0.15099796
     atom   33 type  3   force =     0.03522703   -0.00000000   -0.08940560
     The local contribution  to forces
     atom    1 type  1   force =     0.00000000    0.00000000   -0.11145957
     atom    2 type  2   force =    -0.00000000    0.00000000    0.18106226
     atom    3 type  2   force =    -0.00000000    0.00000000    0.13457150
     atom    4 type  2   force =    -0.00000000    0.00000000    0.14908074
     atom    5 type  2   force =    -0.00000000    0.00000000    0.16473190
     atom    6 type  2   force =     0.04256285    0.00134872   -0.01206526
     atom    7 type  2   force =     0.04256285   -0.00134872   -0.01206526
     atom    8 type  2   force =    -0.04256285    0.00134872   -0.01206526
     atom    9 type  2   force =    -0.04256285   -0.00134872   -0.01206526
     atom   10 type  2   force =     0.00025340    0.00000000    0.00566397
     atom   11 type  2   force =    -0.10690028    0.00000000    0.03830739
     atom   12 type  2   force =    -0.00025340   -0.00000000    0.00566397
     atom   13 type  2   force =     0.10690028    0.00000000    0.03830739
     atom   14 type  2   force =     0.00000000   -0.01594667    0.16255084
     atom   15 type  2   force =     0.00000000    0.01594667    0.16255084
     atom   16 type  2   force =     0.00000000    0.03750239    0.15272325
     atom   17 type  2   force =     0.00000000   -0.03750239    0.15272325
     atom   18 type  3   force =     0.00000000    0.00000000    0.70264932
     atom   19 type  3   force =     0.00000000    0.00000000   -0.16628780
     atom   20 type  3   force =     0.00000000    0.00000000   -0.18832565
     atom   21 type  3   force =     0.00000000    0.00000000   -0.20694600
     atom   22 type  3   force =    -0.00860705    0.05419394    0.02388183
     atom   23 type  3   force =    -0.00860705   -0.05419394    0.02388183
     atom   24 type  3   force =     0.00860705    0.05419394    0.02388183
     atom   25 type  3   force =     0.00860705   -0.05419394    0.02388183
     atom   26 type  3   force =     0.00000000   -0.73845547   -0.67237960
     atom   27 type  3   force =     0.00000000    0.73845547   -0.67237960
     atom   28 type  3   force =     0.00000000   -0.10413799   -0.25869558
     atom   29 type  3   force =     0.00000000    0.10413799   -0.25869558
     atom   30 type  3   force =    -0.05228487    0.00000000    0.15916300
     atom   31 type  3   force =     0.03850982    0.00000000    0.09869733
     atom   32 type  3   force =     0.05228487    0.00000000    0.15916300
     atom   33 type  3   force =    -0.03850982    0.00000000    0.09869733
     The core correction contribution to forces
     atom    1 type  1   force =     0.00000000    0.00000000    0.00000000
     atom    2 type  2   force =     0.00000000    0.00000000   -0.00009339
     atom    3 type  2   force =     0.00000000    0.00000000   -0.00027945
     atom    4 type  2   force =    -0.00000000    0.00000000   -0.00011263
     atom    5 type  2   force =    -0.00000000    0.00000000   -0.00012841
     atom    6 type  2   force =     0.00114060    0.00082792   -0.00071616
     atom    7 type  2   force =     0.00114060   -0.00082792   -0.00071616
     atom    8 type  2   force =    -0.00114060    0.00082792   -0.00071616
     atom    9 type  2   force =    -0.00114060   -0.00082792   -0.00071616
     atom   10 type  2   force =     0.00104675    0.00000000    0.00066294
     atom   11 type  2   force =     0.00006302    0.00000000   -0.00002065
     atom   12 type  2   force =    -0.00104675    0.00000000    0.00066294
     atom   13 type  2   force =    -0.00006302    0.00000000   -0.00002065
     atom   14 type  2   force =     0.00000000    0.00017646   -0.00028197
     atom   15 type  2   force =     0.00000000   -0.00017646   -0.00028197
     atom   16 type  2   force =     0.00000000    0.00008656   -0.00022987
     atom   17 type  2   force =     0.00000000   -0.00008656   -0.00022987
     atom   18 type  3   force =     0.00000000    0.00000000    0.00808471
     atom   19 type  3   force =     0.00000000    0.00000000    0.00005059
     atom   20 type  3   force =    -0.00000000    0.00000000   -0.00072106
     atom   21 type  3   force =    -0.00000000    0.00000000   -0.00008593
     atom   22 type  3   force =    -0.00010193   -0.00023696   -0.00170567
     atom   23 type  3   force =    -0.00010193    0.00023696   -0.00170567
     atom   24 type  3   force =     0.00010193   -0.00023696   -0.00170567
     atom   25 type  3   force =     0.00010193    0.00023696   -0.00170567
     atom   26 type  3   force =     0.00000000   -0.00574168   -0.00576166
     atom   27 type  3   force =     0.00000000    0.00574168   -0.00576166
     atom   28 type  3   force =     0.00000000    0.00060329   -0.00103886
     atom   29 type  3   force =     0.00000000   -0.00060329   -0.00103886
     atom   30 type  3   force =    -0.00012659    0.00000000   -0.00045322
     atom   31 type  3   force =    -0.00018051   -0.00000000   -0.00062204
     atom   32 type  3   force =     0.00012659    0.00000000   -0.00045322
     atom   33 type  3   force =     0.00018051    0.00000000   -0.00062204
     The Hubbard contrib.    to forces
     atom    1 type  1   force =     0.00000000    0.00000000    0.00000000
     atom    2 type  2   force =     0.00000000    0.00000000    0.00000000
     atom    3 type  2   force =     0.00000000    0.00000000    0.00000000
     atom    4 type  2   force =     0.00000000    0.00000000    0.00000000
     atom    5 type  2   force =     0.00000000    0.00000000    0.00000000
     atom    6 type  2   force =     0.00000000    0.00000000    0.00000000
     atom    7 type  2   force =     0.00000000    0.00000000    0.00000000
     atom    8 type  2   force =     0.00000000    0.00000000    0.00000000
     atom    9 type  2   force =     0.00000000    0.00000000    0.00000000
     atom   10 type  2   force =     0.00000000    0.00000000    0.00000000
     atom   11 type  2   force =     0.00000000    0.00000000    0.00000000
     atom   12 type  2   force =     0.00000000    0.00000000    0.00000000
     atom   13 type  2   force =     0.00000000    0.00000000    0.00000000
     atom   14 type  2   force =     0.00000000    0.00000000    0.00000000
     atom   15 type  2   force =     0.00000000    0.00000000    0.00000000
     atom   16 type  2   force =     0.00000000    0.00000000    0.00000000
     atom   17 type  2   force =     0.00000000    0.00000000    0.00000000
     atom   18 type  3   force =     0.00000000    0.00000000    0.00000000
     atom   19 type  3   force =     0.00000000    0.00000000    0.00000000
     atom   20 type  3   force =     0.00000000    0.00000000    0.00000000
     atom   21 type  3   force =     0.00000000    0.00000000    0.00000000
     atom   22 type  3   force =     0.00000000    0.00000000    0.00000000
     atom   23 type  3   force =     0.00000000    0.00000000    0.00000000
     atom   24 type  3   force =     0.00000000    0.00000000    0.00000000
     atom   25 type  3   force =     0.00000000    0.00000000    0.00000000
     atom   26 type  3   force =     0.00000000    0.00000000    0.00000000
     atom   27 type  3   force =     0.00000000    0.00000000    0.00000000
     atom   28 type  3   force =     0.00000000    0.00000000    0.00000000
     atom   29 type  3   force =     0.00000000    0.00000000    0.00000000
     atom   30 type  3   force =     0.00000000    0.00000000    0.00000000
     atom   31 type  3   force =     0.00000000    0.00000000    0.00000000
     atom   32 type  3   force =     0.00000000    0.00000000    0.00000000
     atom   33 type  3   force =     0.00000000    0.00000000    0.00000000
     The SCF correction term to forces
     atom    1 type  1   force =    -0.00000000   -0.00000000    0.00007013
     atom    2 type  2   force =     0.00000000   -0.00000000   -0.00015867
     atom    3 type  2   force =     0.00000000   -0.00000000   -0.00016837
     atom    4 type  2   force =    -0.00000000   -0.00000000   -0.00015900
     atom    5 type  2   force =    -0.00000000   -0.00000000   -0.00016816
     atom    6 type  2   force =    -0.00000756   -0.00001235    0.00012666
     atom    7 type  2   force =    -0.00000756    0.00001235    0.00012666
     atom    8 type  2   force =     0.00000756   -0.00001235    0.00012666
     atom    9 type  2   force =     0.00000756    0.00001235    0.00012666
     atom   10 type  2   force =    -0.00000514   -0.00000000    0.00048915
     atom   11 type  2   force =    -0.00000633   -0.00000000    0.00048664
     atom   12 type  2   force =     0.00000514   -0.00000000    0.00048915
     atom   13 type  2   force =     0.00000633   -0.00000000    0.00048664
     atom   14 type  2   force =     0.00000000   -0.00002016   -0.00045463
     atom   15 type  2   force =     0.00000000    0.00002016   -0.00045463
     atom   16 type  2   force =     0.00000000   -0.00001720   -0.00045808
     atom   17 type  2   force =     0.00000000    0.00001720   -0.00045808
     atom   18 type  3   force =     0.00000000   -0.00000000   -0.00034768
     atom   19 type  3   force =     0.00000000    0.00000000   -0.00032282
     atom   20 type  3   force =     0.00000000   -0.00000000   -0.00035117
     atom   21 type  3   force =     0.00000000    0.00000000   -0.00033428
     atom   22 type  3   force =    -0.00000739   -0.00001601    0.00032115
     atom   23 type  3   force =    -0.00000739    0.00001601    0.00032115
     atom   24 type  3   force =     0.00000739   -0.00001601    0.00032115
     atom   25 type  3   force =     0.00000739    0.00001601    0.00032115
     atom   26 type  3   force =    -0.00000000   -0.00000132    0.00117392
     atom   27 type  3   force =    -0.00000000    0.00000132    0.00117392
     atom   28 type  3   force =    -0.00000000   -0.00000856    0.00117835
     atom   29 type  3   force =    -0.00000000    0.00000856    0.00117835
     atom   30 type  3   force =    -0.00000529   -0.00000000   -0.00117453
     atom   31 type  3   force =    -0.00000105   -0.00000000   -0.00118340
     atom   32 type  3   force =     0.00000529   -0.00000000   -0.00117453
     atom   33 type  3   force =     0.00000105    0.00000000   -0.00118340

     Total force =     0.000412     Total SCF correction =     0.003732
     SCF correction compared to forces is large: reduce conv_thr to get better values
     Message from routine bfgs:
     history already reset at previous step: exiting
     Energy error            =      1.5E-07 Ry
     Gradient error          =      1.1E-04 Ry/Bohr

     bfgs failed after  21 scf cycles and  16 bfgs steps, convergence not achieved
     (criteria: energy <  1.0E-05 Ry, force <  1.0E-04 Ry/Bohr)

     End of BFGS Geometry Optimization

     Final energy             =   -2498.2270633960 Ry

     File ./out/H-TaP.bfgs deleted, as requested
Begin final coordinates

ATOMIC_POSITIONS (crystal)
H                0.0000000000        0.0000000000        0.1651504260
P                0.0000000000        0.0000000000        0.5841086685
P                0.0000000000        0.5000000000        0.5840625013
P                0.5000000000        0.0000000000        0.5841721168
P                0.5000000000        0.5000000000        0.5840059087
P                0.2521790616        0.2533364419        0.0821486873
P                0.2521790616        0.7466635581        0.0821486873
P                0.7478209384        0.2533364419        0.0821486873
P                0.7478209384        0.7466635581        0.0821486873
P                0.2522484439        0.0000000000        0.3360748683
P                0.2519147865        0.5000000000        0.3341764130
P                0.7477515561        0.0000000000        0.3360748683
P                0.7480852135        0.5000000000        0.3341764130
P                0.0000000000        0.2509671983        0.8328758857
P                0.0000000000        0.7490328017        0.8328758857
P                0.5000000000        0.2494695692        0.8330072340
P                0.5000000000        0.7505304308        0.8330072340
Ta               0.0000000000        0.0000000000       -0.0016754767
Ta               0.0000000000        0.5000000000       -0.0001632004
Ta               0.5000000000        0.0000000000        0.0000231181
Ta               0.5000000000        0.5000000000       -0.0012646068
Ta               0.2500589218        0.2505477511        0.5010875170
Ta               0.2500589218        0.7494522489        0.5010875170
Ta               0.7499410782        0.2505477511        0.5010875170
Ta               0.7499410782        0.7494522489        0.5010875170
Ta              -0.0000000000        0.2523956883        0.2512082124
Ta               0.0000000000        0.7476043117        0.2512082124
Ta               0.5000000000        0.2489283164        0.2497710696
Ta               0.5000000000        0.7510716836        0.2497710696
Ta               0.2496508518       -0.0000000000        0.7506821050
Ta               0.2504268284        0.5000000000        0.7504254956
Ta               0.7503491482        0.0000000000        0.7506821050
Ta               0.7495731716        0.5000000000        0.7504254956
End final coordinates

     Writing all to output data dir ./out/H-TaP.save/ :
     XML data file, charge density, pseudopotentials, collected wavefunctions

     General routines

     Parallel routines

   This run was terminated on:   0:26:45  20Feb2024

   JOB DONE.